c turning on binary mode checking
c parsing input formula with 202048 variables and 780985 clauses
c finished parsing, read 2297267 bytes from proof file
c detected empty clause; start verification via backward checking
c 3024 of 780985 clauses in core                            
c 1006 of 89488 lemmas in core using 18657 resolution steps
c 0 RAT lemmas in core; 75 redundant literals in core lemmas
s VERIFIED
c verification time: 0.946 seconds
